SAT
96 1 -53 74 -65 43 -78 -31 -4 -91 62 3 -30 -27 87 -69 63 -32 -21 85 83 16 -36 -100 17 -57 -86 -93 40 9 60 -68 -5 11 94 -55 -92 56 -67 -49 47 10 8 13 46 -82 23 6 -18 -97 52 48 -58 -84 15 12 42 -98 50 -44 88 -70 38 -64 -35 34 29 -73 54 -2 -76 66 77 -20 -89 80 59 -37 -99 -28 61 71 -24 -45 14 79 51 -33 -75 72 -26 90 41 19 7 -25 -39 -81 95 -22 0
